p tw 148 352
0 1
0 113
0 131
0 132
1 115
1 139
2 3
2 6
2 109
2 118
3 100
4 5
4 11
5 112
5 113
5 114
5 115
6 7
6 8
6 9
6 10
6 109
6 118
7 8
7 9
7 10
7 101
7 102
7 103
8 9
8 10
8 56
8 57
9 10
9 120
9 130
9 144
10 92
10 98
10 121
10 129
11 96
11 114
11 142
12 13
12 46
12 59
12 79
13 45
13 78
14 15
14 62
14 73
14 125
15 20
15 21
15 22
16 17
16 65
17 80
18 19
18 51
19 48
19 94
19 143
20 21
20 22
20 70
20 73
20 74
20 75
21 22
21 62
21 63
22 125
23 24
23 25
23 81
23 86
24 25
24 43
25 48
25 49
25 50
25 51
26 27
26 54
26 72
27 55
27 137
28 29
28 30
28 31
28 87
28 88
28 89
28 90
29 30
29 31
29 123
30 31
30 60
31 124
31 145
32 33
32 34
32 134
33 34
33 106
33 107
34 110
34 117
34 135
34 147
35 36
35 37
35 38
35 91
35 92
36 37
36 38
36 57
36 67
36 121
36 122
37 38
37 126
38 127
39 40
39 61
40 44
41 42
41 108
41 109
42 118
42 119
43 50
43 81
43 82
44 90
44 108
44 119
45 46
45 47
45 78
46 47
46 59
46 79
47 58
47 61
47 76
48 49
48 50
48 51
48 94
48 143
49 50
49 51
49 80
49 85
49 86
50 51
50 81
50 82
52 53
52 54
52 55
52 76
52 77
52 78
52 79
53 54
53 55
53 146
54 55
54 72
55 137
56 57
56 98
57 67
57 121
57 122
58 59
58 61
58 76
59 79
60 87
60 123
60 124
61 76
62 63
62 73
62 125
63 74
63 88
63 128
63 145
64 65
64 66
64 67
64 68
64 136
65 66
65 67
66 67
66 71
66 138
67 121
67 122
68 69
68 70
68 71
68 136
69 70
69 71
69 99
70 71
70 73
70 74
70 75
71 138
72 137
72 141
72 147
73 74
73 75
73 125
74 75
74 88
74 128
74 145
75 89
75 93
76 77
76 78
76 79
77 78
77 79
77 146
78 79
80 85
80 86
81 82
81 86
82 85
83 84
83 99
84 112
84 133
84 140
85 86
87 88
87 89
87 90
87 123
87 124
88 89
88 90
88 128
88 145
89 90
89 93
90 108
90 119
91 92
91 122
91 126
91 127
92 98
92 121
92 129
93 128
94 95
94 96
94 143
95 96
95 97
96 114
96 142
97 142
97 143
98 121
98 129
100 111
101 102
101 103
101 129
101 130
102 103
102 120
103 144
104 105
104 106
104 134
104 135
105 107
105 110
105 111
106 107
106 134
106 135
107 110
107 111
108 109
108 119
109 118
110 111
110 117
110 135
110 147
112 113
112 114
112 115
112 133
112 140
113 114
113 115
113 131
113 132
114 115
114 142
115 139
116 117
116 141
117 135
117 147
118 119
120 130
120 144
121 122
121 129
122 126
122 127
123 124
124 145
126 127
128 145
129 130
130 144
131 132
131 139
131 140
132 133
133 140
134 135
135 147
136 138
137 141
137 147
139 140
141 147
142 143
